% From Gecode's examples/domino.cc
% Example 0
r = 7;
c = 8;
high = 6;
board = array2d(1..r, 1..c, 
        [2,1,0,3,0,4,5,5,
         6,2,0,6,3,1,4,0,
         3,2,3,6,2,5,4,3,
         5,4,5,1,1,2,1,2,
         0,0,1,5,0,5,4,4,
         4,6,2,1,3,6,6,1,
         4,2,0,6,5,3,3,6
     ])
;